%nprocshared=20
%mem=20GB
# td PBE1PBE/6-311g(2d,p)

4

1 1
 C                 -6.69701300    1.39796700    0.07608300
 C                 -7.57713400    2.46578900    0.22823900
 C                 -8.94580000    2.19708300    0.22371700
 C                 -9.41357600    0.88587800    0.07261400
 C                 -8.53271500   -0.18348200   -0.08093600
 C                 -7.15961300    0.08236000   -0.08452900
 N                 -6.11407300   -0.83991400   -0.23728800
 C                 -4.85872100   -0.30562000   -0.16231500
 S                 -4.93560800    1.44190500    0.05770000
 C                  5.05116000   -0.73961900   -0.10741100
 S                  6.34537900   -1.89705100    0.19515100
 C                  7.55515300   -0.62443800    0.16072800
 C                  6.94768000    0.61974700   -0.07202000
 N                  5.55561100    0.52276600   -0.24108100
 C                 -6.36312800   -2.27949900   -0.42677600
 C                 -6.42069100   -3.05270900    0.89184500
 C                  4.76317400    1.69719800   -0.64182000
 C                  4.28201100    2.53586300    0.54408000
 C                  8.93301600   -0.74065800    0.33125000
 C                  9.70442300    0.41875500    0.27021100
 C                  9.10344700    1.66370200    0.04409000
 C                  7.72538800    1.78113900   -0.12801200
 C                  2.51117300   -0.55972900   -0.17227500
 C                  3.73862200   -1.22644400   -0.18011900
 C                  0.05749700   -0.55022200   -0.19242700
 C                  1.28088600   -1.21711300   -0.24425100
 C                 -3.66477500   -1.02593400   -0.23958100
 C                 -2.39171300   -0.45317500   -0.19067400
 C                 -1.19602700   -1.16409900   -0.25295400
 H                 -7.20812200    3.47922900    0.34907800
 H                 -9.65145600    3.01298500    0.34220900
 H                -10.48156200    0.69239300    0.07756400
 H                 -8.91429200   -1.19293700   -0.18540000
 H                 -5.58281200   -2.66737900   -1.08533000
 H                 -7.30149500   -2.36932800   -0.97853900
 H                 -6.62001100   -4.11012000    0.69014700
 H                 -7.21709500   -2.67127900    1.53826300
 H                 -5.47409600   -2.97926600    1.43599500
 H                  3.93312200    1.33658000   -1.25147600
 H                  5.39714700    2.29266600   -1.30414300
 H                  3.70860000    3.39424200    0.17874100
 H                  5.12620100    2.91466900    1.12803600
 H                  3.64393600    1.95541800    1.21761600
 H                  9.39214200   -1.70813000    0.50723000
 H                 10.77960400    0.35354000    0.40217600
 H                  9.71769900    2.55765800    0.00449000
 H                  7.27858700    2.75522200   -0.29186000
 H                  2.47435400    0.52066600   -0.06917600
 H                  3.68274100   -2.31286100   -0.19176600
 H                  0.07889300    0.53674100   -0.09515400
 H                  1.27702500   -2.30198800   -0.34151700
 H                 -3.73021700   -2.10518500   -0.33051200
 H                 -2.31419900    0.63068300   -0.09434300
 H                 -1.23816700   -2.24827700   -0.34990200

