%chk=acetone.chk
%mem=6MW
%nproc=1
# opt freq b3lyp/6-31g(d) geom=connectivity

Title Card Required

0 1
 C
 O                  1              B1
 C                  1              B2    2              A1
 H                  3              B3    1              A2    2              D1
 H                  3              B4    1              A3    2              D2
 H                  3              B5    1              A4    2              D3
 C                  1              B6    2              A5    3              D4
 H                  7              B7    1              A6    2              D5
 H                  7              B8    1              A7    2              D6
 H                  7              B9    1              A8    2              D7

   B1             1.25840000
   B2             1.54000000
   B3             1.07000000
   B4             1.07000000
   B5             1.07000000
   B6             1.54000000
   B7             1.07000000
   B8             1.07000000
   B9             1.07000000
   A1           119.88652694
   A2           109.47120255
   A3           109.47120255
   A4           109.47123134
   A5           120.22694612
   A6           109.47120255
   A7           109.47120255
   A8           109.47123134
   D1            59.98889260
   D2           179.98890740
   D3           -60.01110000
   D4           180.00000000
   D5           120.00509260
   D6          -119.99489260
   D7             0.00510000

 1 2 2.0 3 1.0 7 1.0
 2
 3 4 1.0 5 1.0 6 1.0
 4
 5
 6
 7 8 1.0 9 1.0 10 1.0
 8
 9
 10

