%chk=O2_B3LYP6-31Gd.chk
%mem=6MW
%nproc=1
# opt b3lyp/6-31g(d) geom=connectivity

Title Card Required

0 3
 O
 O                  1              B1

   B1             1.16160000

 1 2 2.0
 2

