%chk=O_B3LYP6-31Gd_unrestricted.chk
%mem=6MW
%nproc=1
# opt ub3lyp/6-31g(d) geom=connectivity

Title Card Required

0 3
 O

 1

