%chk=C:\Users\22102\Desktop\Zn.chk
# td b3lyp/cc-pvtz geom=connectivity

Title Card Required

0 1
 Zn                -1.02941175    1.32352939    0.00000000

 1

